# Objective value = 4289.84
I_0_0 1214
I_0_1 1672
I_0_2 1616
I_0_3 1.4710000000000005e+03
I_1_0 18
I_1_1 0
I_1_2 1.7999999999999996e+01
I_1_3 1.5987211554602254e-14
I_2_0 52
I_2_1 26
I_2_2 9.9475983006414026e-14
I_2_3 5.2000000000000014e+01
I_3_0 21
I_3_1 5.8286708792820718e-16
I_3_2 21
I_3_3 5.8286708792820718e-16
I_4_0 64
I_4_1 32
I_4_2 -2.8421709430404007e-14
I_4_3 6.4000000000000028e+01
I_5_0 22
I_5_1 0
I_5_2 22
I_5_3 0
I_6_0 160
I_6_1 80
I_6_2 0
I_6_3 1.6000000000000017e+02
I_7_0 126
I_7_1 63
I_7_2 0
I_7_3 126
I_8_0 78
I_8_1 39
I_8_2 78
I_8_3 3.8999999999999986e+01
I_9_0 116
I_9_1 58
I_9_2 116
I_9_3 58
I_10_0 99
I_10_1 0
I_10_2 99
I_10_3 0
q_1_0 0
q_1_1 36
q_1_2 1.9539925233402755e-14
q_2_0 0
q_2_1 7.8159700933611020e-14
q_2_2 7.7999999999999915e+01
q_3_0 5.8286708792820718e-16
q_3_1 42
q_3_2 5.8286708792820718e-16
q_4_0 -1.7763568394002505e-15
q_4_1 -2.1316282072803006e-14
q_4_2 9.6000000000000057e+01
q_5_0 0
q_5_1 44
q_5_2 0
q_6_0 0
q_6_1 0
q_6_2 2.4000000000000017e+02
q_7_0 0
q_7_1 0
q_7_2 189
q_8_0 2.1649348980190553e-15
q_8_1 78
q_8_2 -8.8817841970012523e-15
q_9_0 0
q_9_1 116
q_9_2 0
q_10_0 0
q_10_1 198
q_10_2 0
y_0_0 0
y_0_1 1
y_0_2 1
y_1_0 0
y_1_1 9.9999999999999989e-01
y_1_2 8.8817841970012523e-16
y_2_0 0
y_2_1 1.5543122344752192e-15
y_2_2 9.9999999999999944e-01
y_3_0 2.7755575615628914e-17
y_3_1 1
y_3_2 2.7755575615628914e-17
y_4_0 -5.5511151231257827e-17
y_4_1 -6.6613381477509392e-16
y_4_2 1.0000000000000009e+00
y_5_0 0
y_5_1 1
y_5_2 0
y_6_0 0
y_6_1 0
y_6_2 1.0000000000000007e+00
y_7_0 0
y_7_1 0
y_7_2 1
y_8_0 5.5511151231257827e-17
y_8_1 1
y_8_2 -9.71445146547012e-17
y_9_0 0
y_9_1 1
y_9_2 0
y_10_0 0
y_10_1 1
y_10_2 0
x_0_1_0 6.6613381477509392e-16
x_0_1_1 1.0000000000000022e+00
x_0_1_2 0
x_0_2_0 2.2204460492503131e-16
x_0_2_1 0
x_0_2_2 0.999999999999998
x_0_3_0 0
x_0_3_1 1
x_0_3_2 1.1102230246251565e-16
x_0_4_0 0
x_0_4_1 0
x_0_4_2 0
x_0_5_0 0
x_0_5_1 0
x_0_5_2 0
x_0_6_0 0
x_0_6_1 -2.2204460492503131e-16
x_0_6_2 1.3322676295501878e-15
x_0_7_0 0
x_0_7_1 0
x_0_7_2 1.0000000000000009e+00
x_0_8_0 0
x_0_8_1 0
x_0_8_2 0
x_0_9_0 0
x_0_9_1 0
x_0_9_2 0
x_0_10_0 0
x_0_10_1 0
x_0_10_2 0
x_1_2_0 2.2204460492503131e-16
x_1_2_1 0
x_1_2_2 8.8817841970012523e-16
x_1_3_0 0
x_1_3_1 -1.3322676295501878e-15
x_1_3_2 0
x_1_4_0 0
x_1_4_1 0
x_1_4_2 1.5543122344752192e-15
x_1_5_0 0
x_1_5_1 0
x_1_5_2 0
x_1_6_0 0
x_1_6_1 0
x_1_6_2 0
x_1_7_0 0
x_1_7_1 0
x_1_7_2 0
x_1_8_0 0
x_1_8_1 0
x_1_8_2 0
x_1_9_0 -1.1102230246251565e-16
x_1_9_1 9.9999999999999978e-01
x_1_9_2 0
x_1_10_0 -3.3306690738754696e-16
x_1_10_1 0
x_1_10_2 0
x_2_3_0 0
x_2_3_1 0
x_2_3_2 0
x_2_4_0 -1.1102230246251565e-16
x_2_4_1 2.2204460492503131e-16
x_2_4_2 9.9999999999999956e-01
x_2_5_0 0
x_2_5_1 0
x_2_5_2 0
x_2_6_0 0
x_2_6_1 0
x_2_6_2 0
x_2_7_0 0
x_2_7_1 0
x_2_7_2 0
x_2_8_0 0
x_2_8_1 0
x_2_8_2 0
x_2_9_0 0
x_2_9_1 2.2204460492503131e-15
x_2_9_2 0
x_2_10_0 0
x_2_10_1 0
x_2_10_2 -4.4408920985006262e-16
x_3_4_0 0
x_3_4_1 0
x_3_4_2 0
x_3_5_0 0
x_3_5_1 5.5511151231257827e-17
x_3_5_2 0
x_3_6_0 0
x_3_6_1 0
x_3_6_2 0
x_3_7_0 0
x_3_7_1 0
x_3_7_2 0
x_3_8_0 5.5511151231257827e-17
x_3_8_1 1
x_3_8_2 -1.1102230246251565e-16
x_3_9_0 0
x_3_9_1 0
x_3_9_2 0
x_3_10_0 0
x_3_10_1 0
x_3_10_2 0
x_4_5_0 0
x_4_5_1 0
x_4_5_2 0
x_4_6_0 0
x_4_6_1 2.2204460492503131e-16
x_4_6_2 1.0000000000000007e+00
x_4_7_0 0
x_4_7_1 0
x_4_7_2 0
x_4_8_0 0
x_4_8_1 0
x_4_8_2 0
x_4_9_0 0
x_4_9_1 0
x_4_9_2 0
x_4_10_0 0
x_4_10_1 0
x_4_10_2 0
x_5_6_0 0
x_5_6_1 0
x_5_6_2 0
x_5_7_0 0
x_5_7_1 0
x_5_7_2 0
x_5_8_0 0
x_5_8_1 1
x_5_8_2 0
x_5_9_0 0
x_5_9_1 0
x_5_9_2 0
x_5_10_0 0
x_5_10_1 1
x_5_10_2 0
x_6_7_0 0
x_6_7_1 0
x_6_7_2 9.9999999999999944e-01
x_6_8_0 0
x_6_8_1 0
x_6_8_2 0
x_6_9_0 0
x_6_9_1 0
x_6_9_2 0
x_6_10_0 0
x_6_10_1 0
x_6_10_2 0
x_7_8_0 0
x_7_8_1 0
x_7_8_2 0
x_7_9_0 0
x_7_9_1 0
x_7_9_2 0
x_7_10_0 0
x_7_10_1 0
x_7_10_2 0
x_8_9_0 0
x_8_9_1 0
x_8_9_2 0
x_8_10_0 0
x_8_10_1 0
x_8_10_2 0
x_9_10_0 1.1102230246251565e-16
x_9_10_1 1
x_9_10_2 0
